c Example of unsat generation
p wcnf 5 33 10
10 1 2 3 0
10 1 2 -3 0
10 1 -2 -3 0
10 -1 -2 3 0
10 -1 -2 -3 0
10 2 3 -4 0
10 2 -3 4 0
10 -2 3 4 0
10 -2 -3 4 0
10 -2 -3 -4 0
10 3 4 5 0
10 3 -4 -5 0
10 -3 4 5 0
10 -3 4 -5 0
10 -3 -4 5 0
10 1 5 4 0
10 1 5 -4 0
10 1 -5 -4 0
10 -1 5 4 0
10 -1 -5 4 0
10 -1 -5 -4 0
10 5 4 2 0
10 5 4 -2 0
10 5 -4 -2 0
10 -5 4 2 0
10 -5 -4 2 0
10 -5 -4 -2 0
10 4 2 3 0
10 4 2 -3 0
10 4 -2 3 0
10 -4 2 -3 0
10 -4 -2 3 0
10 -4 -2 -3 0
